&CONTROL
  calculation = 'scf' ,
  restart_mode = 'from_scratch' ,
  prefix = 'H' ,
  pseudo_dir = './' ,
  outdir = './out',
  tstress = .false. ,
  tprnfor = .false. ,
  verbosity = 'low' ,
  disk_io = 'low' ,
  wf_collect = .true.,
/
&SYSTEM
  ibrav = 0 ,
  celldm(1) = 1.0 ,
  nosym = .true. ,
  nat = 4,
  ntyp = 1 ,
  nspin = 1 ,
  nbnd = 3,
  ecutwfc = 20  ,
  occupations = 'smearing' ,
  smearing = 'f-d' ,
  degauss = 0.0063336 ,
  input_dft = 'PBE' ,
/
&ELECTRONS
  diagonalization = 'david' ,
  electron_maxstep = 2000 ,
  conv_thr = 1e-4 ,
  mixing_beta = 0.7 ,
/
ATOMIC_SPECIES
  H  1.00 H_coul.UPF 
K_POINTS {automatic}
 4 4 4 1 1 1
 CELL_PARAMETERS
       10.00000000   0.00000000   0.00000000
        0.00000000  10.00000000   0.00000000
        0.00000000   0.00000000  10.00000000
 ATOMIC_POSITIONS {alat}
  H     2.50000000   2.50000000   0.00000000
  H    -2.50000000   2.50000000   0.00000000
  H    -2.50000000  -2.50000000   0.00000000
  H     2.50000000  -2.50000000   0.00000000
